\ENCODING=ISO-8859-1
\Problem name: ilog.cplex

Minimize
 obj1: 91350 x1 + 97529 x2 + 105709 x3 + 104623 x4 + 105687 x5 + 91955 x6
       + 92249 x7 + 108881 x8 + 90823 x9 + 100782 x10 + 107138 x11 + 101944 x12
       + 92879 x13 + 102503 x14 + 108646 x15 + 92523 x16 + 93763 x17
       + 105810 x18 + 106516 x19 + 100031 x20 + 91374 x21 + 92120 x22
       + 93826 x23 + 90518 x24 + 101160 x25 + 103011 x26 + 96714 x27
       + 93278 x28 + 93882 x29 + 105784 x30 + 108036 x31 + 90432 x32
       + 103215 x33 + 91198 x34 + 105034 x35 + 100410 x36 + 91185 x37
       + 98824 x38 + 90871 x39 + 95491 x40 + 109477 x41 + 107540 x42
       + 105145 x43 + 103413 x44 + 100303 x45 + 91348 x46 + 99533 x47
       + 103571 x48 + 101766 x49 + 104003 x50 + 91213 x51 + 99417 x52
       + 99555 x53 + 99856 x54 + 109004 x55 + 90423 x56 + 99356 x57
       + 102897 x58 + 94920 x59 + 99340 x60 + 93449 x61 + 90851 x62
       + 109086 x63 + 91081 x64 + 92136 x65 + 107452 x66 + 108314 x67
       + 104289 x68 + 97366 x69 + 92210 x70 + 101449 x71 + 102554 x72
       + 98458 x73 + 105346 x74 + 104773 x75 + 96413 x76 + 108092 x77
       + 95393 x78 + 91170 x79 + 100158 x80 + 102583 x81 + 91503 x82
       + 104955 x83 + 96973 x84 + 106160 x85 + 97050 x86 + 99429 x87
       + 98291 x88 + 96416 x89 + 94675 x90 + 98194 x91 + 103718 x92 + 96014 x93
       + 101736 x94 + 92088 x95 + 91952 x96 + 94403 x97 + 99446 x98 + 95004 x99
       + 102816 x100 + 92500 x101 + 99085 x102 + 93920 x103 + 105885 x104
       + 103178 x105 + 104250 x106 + 101131 x107 + 92123 x108 + 90880 x109
       + 99408 x110 + 109997 x111 + 91524 x112 + 94783 x113 + 101912 x114
       + 109411 x115 + 91990 x116 + 91707 x117 + 97154 x118 + 106787 x119
       + 92461 x120 + 106819 x121 + 96879 x122 + 96712 x123 + 90542 x124
       + 104137 x125 + 101560 x126 + 100543 x127 + 100572 x128 + 105559 x129
       + 98203 x130 + 99976 x131 + 105574 x132 + 98447 x133 + 108270 x134
       + 93290 x135 + 97056 x136 + 94352 x137 + 104802 x138 + 100149 x139
       + 99968 x140 + 108983 x141 + 103531 x142 + 102423 x143 + 102486 x144
       + 99539 x145 + 100685 x146 + 91235 x147 + 91340 x148 + 97595 x149
       + 97420 x150 + 105711 x151 + 101544 x152 + 104212 x153 + 108816 x154
       + 107660 x155 + 90191 x156 + 107991 x157 + 103974 x158 + 90848 x159
       + 105383 x160 + 106533 x161 + 103004 x162 + 93494 x163 + 103457 x164
       + 97071 x165 + 106546 x166 + 108320 x167 + 90291 x168 + 93011 x169
       + 93947 x170 + 105707 x171 + 105819 x172 + 99701 x173 + 97364 x174
       + 102424 x175 + 94792 x176 + 104946 x177 + 100752 x178 + 100932 x179
       + 91359 x180 + 90253 x181 + 101238 x182 + 104265 x183 + 100172 x184
       + 103132 x185 + 108232 x186 + 109299 x187 + 100486 x188 + 105069 x189
       + 105776 x190 + 103541 x191 + 90914 x192 + 103243 x193 + 93850 x194
       + 105453 x195 + 109325 x196 + 107523 x197 + 92589 x198 + 101770 x199
       + 91096 x200 + 91001 x201 + 97319 x202 + 109620 x203 + 94855 x204
       + 97376 x205 + 106988 x206 + 92999 x207 + 104387 x208 + 101723 x209
       + 94494 x210 + 96345 x211 + 107472 x212 + 101284 x213 + 105877 x214
       + 105980 x215 + 101231 x216 + 103779 x217 + 99425 x218 + 108746 x219
       + 97911 x220 + 92111 x221 + 105460 x222 + 106456 x223 + 105102 x224
       + 96440 x225 + 102880 x226 + 104594 x227 + 109971 x228 + 97217 x229
       + 109521 x230 + 104231 x231 + 108434 x232 + 96129 x233 + 109945 x234
       + 107201 x235 + 107007 x236 + 105798 x237 + 96511 x238 + 96343 x239
       + 107669 x240 + 104150 x241 + 90364 x242 + 108611 x243 + 102668 x244
       + 91882 x245 + 109818 x246 + 96470 x247 + 108352 x248 + 103201 x249
       + 102420 x250 + 91006 x251 + 95289 x252 + 104437 x253 + 102602 x254
       + 91995 x255 + 98247 x256 + 92158 x257 + 107443 x258 + 94550 x259
       + 107948 x260 + 102117 x261 + 102449 x262 + 93144 x263 + 104346 x264
       + 96322 x265 + 109215 x266 + 100039 x267 + 96922 x268 + 101201 x269
       + 99275 x270 + 96962 x271 + 97573 x272 + 92945 x273 + 98616 x274
       + 107284 x275 + 109640 x276 + 104916 x277 + 108164 x278 + 90091 x279
       + 105250 x280 + 106362 x281 + 106920 x282 + 97196 x283 + 102375 x284
       + 91740 x285 + 106529 x286 + 99505 x287 + 102883 x288 + 105568 x289
       + 108711 x290 + 100091 x291 + 93335 x292 + 108994 x293 + 100285 x294
       + 107923 x295 + 101398 x296 + 91194 x297 + 104465 x298 + 108392 x299
       + 102491 x300 + 103633 x301 + 103825 x302 + 97895 x303 + 96970 x304
       + 94452 x305 + 107535 x306 + 105919 x307 + 107325 x308 + 108937 x309
       + 90625 x310 + 108129 x311 + 99289 x312 + 105736 x313 + 108200 x314
       + 100480 x315 + 95938 x316 + 109690 x317 + 92217 x318 + 101804 x319
       + 92591 x320 + 102750 x321 + 103545 x322 + 102505 x323 + 103719 x324
       + 108576 x325 + 96769 x326 + 95144 x327 + 90294 x328 + 101813 x329
       + 96022 x330 + 109029 x331 + 96702 x332 + 90439 x333 + 93241 x334
       + 101119 x335 + 104834 x336 + 107548 x337 + 109038 x338 + 106327 x339
       + 97009 x340 + 107545 x341 + 100753 x342 + 101745 x343 + 109130 x344
       + 90977 x345 + 102295 x346 + 91377 x347 + 90775 x348 + 102085 x349
       + 96007 x350 + 90607 x351 + 109897 x352 + 93637 x353 + 108052 x354
       + 102970 x355 + 106392 x356 + 94744 x357 + 105748 x358 + 95692 x359
       + 90990 x360 + 103761 x361 + 93161 x362 + 96183 x363 + 97601 x364
       + 109994 x365 + 97909 x366 + 93489 x367 + 109733 x368 + 100268 x369
       + 99111 x370 + 96335 x371 + 103222 x372 + 96266 x373 + 98179 x374
       + 103726 x375 + 93013 x376 + 104189 x377 + 98241 x378 + 97275 x379
       + 99943 x380 + 103617 x381 + 96674 x382 + 107782 x383 + 99997 x384
       + 91207 x385 + 101179 x386 + 94187 x387 + 100475 x388 + 95857 x389
       + 93192 x390 + 98471 x391 + 102984 x392 + 104778 x393 + 109854 x394
       + 103224 x395 + 93378 x396 + 108388 x397 + 93694 x398 + 97397 x399
       + 99540 x400 + 106008 x401 + 107845 x402 + 90093 x403 + 99356 x404
       + 94058 x405 + 93797 x406 + 102335 x407 + 103259 x408 + 103783 x409
       + 98602 x410 + 92343 x411 + 98400 x412 + 106482 x413 + 98913 x414
       + 91155 x415 + 104813 x416 + 100827 x417 + 100341 x418 + 102297 x419
       + 97865 x420 + 95822 x421 + 96411 x422 + 91481 x423 + 102574 x424
       + 96550 x425 + 102633 x426 + 107887 x427 + 92390 x428 + 93163 x429
       + 91395 x430 + 105403 x431 + 91177 x432 + 104866 x433 + 90798 x434
       + 107548 x435 + 92034 x436 + 106271 x437 + 106329 x438 + 98404 x439
       + 98074 x440 + 106168 x441 + 104712 x442 + 91928 x443 + 94927 x444
       + 95014 x445 + 108299 x446 + 99646 x447 + 100243 x448 + 109323 x449
       + 96964 x450 + 93370 x451 + 99066 x452 + 90729 x453 + 107233 x454
       + 96931 x455 + 107132 x456 + 107604 x457 + 96891 x458 + 108938 x459
       + 92894 x460 + 97992 x461 + 107354 x462 + 97149 x463 + 93470 x464
       + 103977 x465 + 105815 x466 + 94314 x467 + 99732 x468 + 99696 x469
       + 104508 x470 + 105196 x471 + 101414 x472 + 107869 x473 + 95377 x474
       + 104959 x475 + 94361 x476 + 93019 x477 + 105043 x478 + 90229 x479
       + 98951 x480 + 101242 x481 + 108864 x482 + 106964 x483 + 93042 x484
       + 106534 x485 + 94752 x486 + 96731 x487 + 96412 x488 + 108804 x489
       + 92342 x490 + 109047 x491 + 93433 x492 + 108887 x493 + 97000 x494
       + 90597 x495 + 101028 x496 + 99259 x497 + 106880 x498 + 98643 x499
       + 101357 x500 + 93952 x501 + 90386 x502 + 108761 x503 + 103055 x504
       + 98403 x505 + 109531 x506 + 93840 x507 + 100719 x508 + 105901 x509
       + 95229 x510 + 91605 x511 + 102069 x512 + 94852 x513 + 90064 x514
       + 100716 x515 + 99614 x516 + 104205 x517 + 94262 x518 + 93994 x519
       + 101630 x520 + 103162 x521 + 91416 x522 + 91371 x523 + 105855 x524
       + 105677 x525 + 91914 x526 + 94897 x527 + 98577 x528 + 90291 x529
       + 94077 x530 + 93444 x531 + 91615 x532 + 91463 x533 + 105701 x534
       + 95727 x535 + 90221 x536 + 109860 x537 + 91990 x538 + 106821 x539
       + 96007 x540 + 90771 x541 + 93655 x542 + 92549 x543 + 108230 x544
       + 99435 x545 + 99412 x546 + 95785 x547 + 96654 x548 + 93315 x549
       + 94833 x550 + 98257 x551 + 109438 x552 + 108539 x553 + 91720 x554
       + 100953 x555 + 97850 x556 + 98689 x557 + 102279 x558 + 92651 x559
       + 99741 x560 + 95571 x561 + 98466 x562 + 98723 x563 + 100077 x564
       + 97560 x565 + 90575 x566 + 98035 x567 + 108454 x568 + 101014 x569
       + 107047 x570 + 91782 x571 + 91151 x572 + 97051 x573 + 95023 x574
       + 97631 x575 + 108111 x576 + 93296 x577 + 94311 x578 + 92694 x579
       + 103684 x580 + 108236 x581 + 106181 x582 + 99710 x583 + 104070 x584
       + 104398 x585 + 102835 x586 + 102180 x587 + 104086 x588 + 95831 x589
       + 103372 x590 + 106289 x591 + 101223 x592 + 105213 x593 + 97769 x594
       + 100121 x595 + 95918 x596 + 96418 x597 + 91603 x598 + 93954 x599
       + 152905 x600 + 38959 x601 + 40479 x602 + 37367 x603 + 42778 x604
       + 39793 x605 + 39002 x606 + 42929 x607 + 36607 x608 + 37833 x609
       + 43517 x610 + 39633 x611 + 38765 x612 + 38294 x613 + 43298 x614
       + 36220 x615 + 43615 x616 + 39189 x617 + 43925 x618 + 43568 x619
       + 41992 x620 + 38402 x621 + 40260 x622 + 37505 x623 + 36796 x624
       + 40302 x625 + 43183 x626 + 39308 x627 + 41180 x628 + 43776 x629
       + 42510 x630 + 40301 x631 + 41840 x632 + 37856 x633 + 38316 x634
       + 36688 x635 + 43990 x636 + 36202 x637 + 37331 x638 + 41194 x639
       + 39516 x640 + 43517 x641 + 38406 x642 + 39283 x643 + 39441 x644
       + 37542 x645 + 40994 x646 + 43657 x647 + 42192 x648 + 41598 x649
       + 43384 x650 + 39461 x651 + 42317 x652 + 42710 x653 + 36922 x654
       + 40035 x655 + 40163 x656 + 39176 x657 + 36708 x658 + 41269 x659
       + 27006 x660
Subject To
 c1:   - x2 + x7 - x8 - x9 + x25 + x26 - x34 - x40 - x47 + x53 + x54 - x60  = 0
 c2:   - x62 + x67 - x68 - x69 + x85 + x86 - x94 - x100 - x107 + x113 + x114
       - x120  = 0
 c3:   - x122 + x127 - x128 - x129 + x145 + x146 - x154 - x160 - x167 + x173
       + x174 - x180  = 0
 c4:   - x182 + x187 - x188 - x189 + x205 + x206 - x214 - x220 - x227 + x233
       + x234 - x240  = 0
 c5:   - x242 + x247 - x248 - x249 + x265 + x266 - x274 - x280 - x287 + x293
       + x294 - x300  = 0
 c6:   - x302 + x307 - x308 - x309 + x325 + x326 - x334 - x340 - x347 + x353
       + x354 - x360  = 1
 c7:   - x362 + x367 - x368 - x369 + x385 + x386 - x394 - x400 - x407 + x413
       + x414 - x420  = 0
 c8:   - x422 + x427 - x428 - x429 + x445 + x446 - x454 - x460 - x467 + x473
       + x474 - x480  = -1
 c9:   - x482 + x487 - x488 - x489 + x505 + x506 - x514 - x520 - x527 + x533
       + x534 - x540  = 0
 c10:  - x542 + x547 - x548 - x549 + x565 + x566 - x574 - x580 - x587 + x593
       + x594 - x600  = 0
 c11:  - x3 - x15 + x18 + x27 + x37 - x39 + x41 + x44 + x48 - x50 + x52 - x54
       + x57  = 0
 c12:  - x63 - x75 + x78 + x87 + x97 - x99 + x101 + x104 + x108 - x110 + x112
       - x114 + x117  = 0
 c13:  - x123 - x135 + x138 + x147 + x157 - x159 + x161 + x164 + x168 - x170
       + x172 - x174 + x177  = 0
 c14:  - x183 - x195 + x198 + x207 + x217 - x219 + x221 + x224 + x228 - x230
       + x232 - x234 + x237  = -1
 c15:  - x243 - x255 + x258 + x267 + x277 - x279 + x281 + x284 + x288 - x290
       + x292 - x294 + x297  = 0
 c16:  - x303 - x315 + x318 + x327 + x337 - x339 + x341 + x344 + x348 - x350
       + x352 - x354 + x357  = 0
 c17:  - x363 - x375 + x378 + x387 + x397 - x399 + x401 + x404 + x408 - x410
       + x412 - x414 + x417  = 0
 c18:  - x423 - x435 + x438 + x447 + x457 - x459 + x461 + x464 + x468 - x470
       + x472 - x474 + x477  = 1
 c19:  - x483 - x495 + x498 + x507 + x517 - x519 + x521 + x524 + x528 - x530
       + x532 - x534 + x537  = 0
 c20:  - x543 - x555 + x558 + x567 + x577 - x579 + x581 + x584 + x588 - x590
       + x592 - x594 + x597  = 0
 c21:  x1 + x4 + x11 + x17 - x18 - x21 + x23 - x31 - x33 - x58  = 0
 c22:  x61 + x64 + x71 + x77 - x78 - x81 + x83 - x91 - x93 - x118  = 0
 c23:  x121 + x124 + x131 + x137 - x138 - x141 + x143 - x151 - x153 - x178  = 1
 c24:  x181 + x184 + x191 + x197 - x198 - x201 + x203 - x211 - x213 - x238  = 0
 c25:  x241 + x244 + x251 + x257 - x258 - x261 + x263 - x271 - x273 - x298
        = -1
 c26:  x301 + x304 + x311 + x317 - x318 - x321 + x323 - x331 - x333 - x358
        = -1
 c27:  x361 + x364 + x371 + x377 - x378 - x381 + x383 - x391 - x393 - x418
        = -1
 c28:  x421 + x424 + x431 + x437 - x438 - x441 + x443 - x451 - x453 - x478  = 0
 c29:  x481 + x484 + x491 + x497 - x498 - x501 + x503 - x511 - x513 - x538
        = -1
 c30:  x541 + x544 + x551 + x557 - x558 - x561 + x563 - x571 - x573 - x598  = 0
 c31:  x2 - x6 - x10 + x12 + x16 - x17 - x19 - x24 - x25 + x45 - x52 + x59  = 0
 c32:  x62 - x66 - x70 + x72 + x76 - x77 - x79 - x84 - x85 + x105 - x112 + x119
        = -1
 c33:  x122 - x126 - x130 + x132 + x136 - x137 - x139 - x144 - x145 + x165
       - x172 + x179  = 0
 c34:  x182 - x186 - x190 + x192 + x196 - x197 - x199 - x204 - x205 + x225
       - x232 + x239  = 0
 c35:  x242 - x246 - x250 + x252 + x256 - x257 - x259 - x264 - x265 + x285
       - x292 + x299  = 1
 c36:  x302 - x306 - x310 + x312 + x316 - x317 - x319 - x324 - x325 + x345
       - x352 + x359  = 0
 c37:  x362 - x366 - x370 + x372 + x376 - x377 - x379 - x384 - x385 + x405
       - x412 + x419  = 1
 c38:  x422 - x426 - x430 + x432 + x436 - x437 - x439 - x444 - x445 + x465
       - x472 + x479  = 0
 c39:  x482 - x486 - x490 + x492 + x496 - x497 - x499 - x504 - x505 + x525
       - x532 + x539  = 0
 c40:  x542 - x546 - x550 + x552 + x556 - x557 - x559 - x564 - x565 + x585
       - x592 + x599  = 0
 c41:  x5 + x10 + x14 + x20 - x32 - x38 + x50 - x51 - x57 + x60  = 0
 c42:  x65 + x70 + x74 + x80 - x92 - x98 + x110 - x111 - x117 + x120  = 0
 c43:  x125 + x130 + x134 + x140 - x152 - x158 + x170 - x171 - x177 + x180  = 0
 c44:  x185 + x190 + x194 + x200 - x212 - x218 + x230 - x231 - x237 + x240  = 0
 c45:  x245 + x250 + x254 + x260 - x272 - x278 + x290 - x291 - x297 + x300  = 0
 c46:  x305 + x310 + x314 + x320 - x332 - x338 + x350 - x351 - x357 + x360  = 0
 c47:  x365 + x370 + x374 + x380 - x392 - x398 + x410 - x411 - x417 + x420  = 0
 c48:  x425 + x430 + x434 + x440 - x452 - x458 + x470 - x471 - x477 + x480  = 0
 c49:  x485 + x490 + x494 + x500 - x512 - x518 + x530 - x531 - x537 + x540  = 0
 c50:  x545 + x550 + x554 + x560 - x572 - x578 + x590 - x591 - x597 + x600  = 1
 c51:  x3 - x5 + x9 + x19 + x21 + x22 - x26 - x30 + x35 - x36 + x43 - x45 - x48
        = -1
 c52:  x63 - x65 + x69 + x79 + x81 + x82 - x86 - x90 + x95 - x96 + x103 - x105
       - x108  = 1
 c53:  x123 - x125 + x129 + x139 + x141 + x142 - x146 - x150 + x155 - x156
       + x163 - x165 - x168  = 0
 c54:  x183 - x185 + x189 + x199 + x201 + x202 - x206 - x210 + x215 - x216
       + x223 - x225 - x228  = 0
 c55:  x243 - x245 + x249 + x259 + x261 + x262 - x266 - x270 + x275 - x276
       + x283 - x285 - x288  = 0
 c56:  x303 - x305 + x309 + x319 + x321 + x322 - x326 - x330 + x335 - x336
       + x343 - x345 - x348  = 0
 c57:  x363 - x365 + x369 + x379 + x381 + x382 - x386 - x390 + x395 - x396
       + x403 - x405 - x408  = 0
 c58:  x423 - x425 + x429 + x439 + x441 + x442 - x446 - x450 + x455 - x456
       + x463 - x465 - x468  = 0
 c59:  x483 - x485 + x489 + x499 + x501 + x502 - x506 - x510 + x515 - x516
       + x523 - x525 - x528  = 0
 c60:  x543 - x545 + x549 + x559 + x561 + x562 - x566 - x570 + x575 - x576
       + x583 - x585 - x588  = 0
 c61:  x6 - x7 + x8 - x13 + x15 - x22 - x23 + x30 - x44 - x46 + x51 + x55 + x58
        = 0
 c62:  x66 - x67 + x68 - x73 + x75 - x82 - x83 + x90 - x104 - x106 + x111
       + x115 + x118  = 0
 c63:  x126 - x127 + x128 - x133 + x135 - x142 - x143 + x150 - x164 - x166
       + x171 + x175 + x178  = 0
 c64:  x186 - x187 + x188 - x193 + x195 - x202 - x203 + x210 - x224 - x226
       + x231 + x235 + x238  = 0
 c65:  x246 - x247 + x248 - x253 + x255 - x262 - x263 + x270 - x284 - x286
       + x291 + x295 + x298  = 0
 c66:  x306 - x307 + x308 - x313 + x315 - x322 - x323 + x330 - x344 - x346
       + x351 + x355 + x358  = 0
 c67:  x366 - x367 + x368 - x373 + x375 - x382 - x383 + x390 - x404 - x406
       + x411 + x415 + x418  = 0
 c68:  x426 - x427 + x428 - x433 + x435 - x442 - x443 + x450 - x464 - x466
       + x471 + x475 + x478  = 0
 c69:  x486 - x487 + x488 - x493 + x495 - x502 - x503 + x510 - x524 - x526
       + x531 + x535 + x538  = 0
 c70:  x546 - x547 + x548 - x553 + x555 - x562 - x563 + x570 - x584 - x586
       + x591 + x595 + x598  = 0
 c71:  - x1 - x14 - x16 + x24 - x28 + x29 + x33 - x37 + x38 + x46 + x47 - x49
       - x53  = 0
 c72:  - x61 - x74 - x76 + x84 - x88 + x89 + x93 - x97 + x98 + x106 + x107
       - x109 - x113  = 0
 c73:  - x121 - x134 - x136 + x144 - x148 + x149 + x153 - x157 + x158 + x166
       + x167 - x169 - x173  = -1
 c74:  - x181 - x194 - x196 + x204 - x208 + x209 + x213 - x217 + x218 + x226
       + x227 - x229 - x233  = 1
 c75:  - x241 - x254 - x256 + x264 - x268 + x269 + x273 - x277 + x278 + x286
       + x287 - x289 - x293  = 0
 c76:  - x301 - x314 - x316 + x324 - x328 + x329 + x333 - x337 + x338 + x346
       + x347 - x349 - x353  = 0
 c77:  - x361 - x374 - x376 + x384 - x388 + x389 + x393 - x397 + x398 + x406
       + x407 - x409 - x413  = 0
 c78:  - x421 - x434 - x436 + x444 - x448 + x449 + x453 - x457 + x458 + x466
       + x467 - x469 - x473  = 0
 c79:  - x481 - x494 - x496 + x504 - x508 + x509 + x513 - x517 + x518 + x526
       + x527 - x529 - x533  = 0
 c80:  - x541 - x554 - x556 + x564 - x568 + x569 + x573 - x577 + x578 + x586
       + x587 - x589 - x593  = -1
 c81:  - x11 - x12 - x27 + x28 + x31 + x32 - x35 + x36 + x40 - x42 + x56  = 0
 c82:  - x71 - x72 - x87 + x88 + x91 + x92 - x95 + x96 + x100 - x102 + x116
        = 0
 c83:  - x131 - x132 - x147 + x148 + x151 + x152 - x155 + x156 + x160 - x162
       + x176  = 0
 c84:  - x191 - x192 - x207 + x208 + x211 + x212 - x215 + x216 + x220 - x222
       + x236  = 0
 c85:  - x251 - x252 - x267 + x268 + x271 + x272 - x275 + x276 + x280 - x282
       + x296  = 0
 c86:  - x311 - x312 - x327 + x328 + x331 + x332 - x335 + x336 + x340 - x342
       + x356  = 0
 c87:  - x371 - x372 - x387 + x388 + x391 + x392 - x395 + x396 + x400 - x402
       + x416  = 0
 c88:  - x431 - x432 - x447 + x448 + x451 + x452 - x455 + x456 + x460 - x462
       + x476  = 0
 c89:  - x491 - x492 - x507 + x508 + x511 + x512 - x515 + x516 + x520 - x522
       + x536  = 1
 c90:  - x551 - x552 - x567 + x568 + x571 + x572 - x575 + x576 + x580 - x582
       + x596  = 0
 c91:  - x4 + x13 - x20 - x29 + x34 + x39 - x41 + x42 - x43 + x49 - x55 - x56
       - x59  = 1
 c92:  - x64 + x73 - x80 - x89 + x94 + x99 - x101 + x102 - x103 + x109 - x115
       - x116 - x119  = 0
 c93:  - x124 + x133 - x140 - x149 + x154 + x159 - x161 + x162 - x163 + x169
       - x175 - x176 - x179  = 0
 c94:  - x184 + x193 - x200 - x209 + x214 + x219 - x221 + x222 - x223 + x229
       - x235 - x236 - x239  = 0
 c95:  - x244 + x253 - x260 - x269 + x274 + x279 - x281 + x282 - x283 + x289
       - x295 - x296 - x299  = 0
 c96:  - x304 + x313 - x320 - x329 + x334 + x339 - x341 + x342 - x343 + x349
       - x355 - x356 - x359  = 0
 c97:  - x364 + x373 - x380 - x389 + x394 + x399 - x401 + x402 - x403 + x409
       - x415 - x416 - x419  = 0
 c98:  - x424 + x433 - x440 - x449 + x454 + x459 - x461 + x462 - x463 + x469
       - x475 - x476 - x479  = 0
 c99:  - x484 + x493 - x500 - x509 + x514 + x519 - x521 + x522 - x523 + x529
       - x535 - x536 - x539  = 0
 c100: - x544 + x553 - x560 - x569 + x574 + x579 - x581 + x582 - x583 + x589
       - x595 - x596 - x599  = 0
 c101: 4 x1 + 4 x61 + 4 x121 + 4 x181 + 4 x241 + 4 x301 + 4 x361 + 4 x421
       + 4 x481 + 4 x541 - 19 x601 <= 0
 c102: 4 x2 + 4 x62 + 4 x122 + 4 x182 + 4 x242 + 4 x302 + 4 x362 + 4 x422
       + 4 x482 + 4 x542 - 18 x602 <= 0
 c103: 4 x3 + 4 x63 + 4 x123 + 4 x183 + 4 x243 + 4 x303 + 4 x363 + 4 x423
       + 4 x483 + 4 x543 - 20 x603 <= 0
 c104: 4 x4 + 4 x64 + 4 x124 + 4 x184 + 4 x244 + 4 x304 + 4 x364 + 4 x424
       + 4 x484 + 4 x544 - 20 x604 <= 0
 c105: 4 x5 + 4 x65 + 4 x125 + 4 x185 + 4 x245 + 4 x305 + 4 x365 + 4 x425
       + 4 x485 + 4 x545 - 19 x605 <= 0
 c106: 4 x6 + 4 x66 + 4 x126 + 4 x186 + 4 x246 + 4 x306 + 4 x366 + 4 x426
       + 4 x486 + 4 x546 - 19 x606 <= 0
 c107: 4 x7 + 4 x67 + 4 x127 + 4 x187 + 4 x247 + 4 x307 + 4 x367 + 4 x427
       + 4 x487 + 4 x547 - 21 x607 <= 0
 c108: 4 x8 + 4 x68 + 4 x128 + 4 x188 + 4 x248 + 4 x308 + 4 x368 + 4 x428
       + 4 x488 + 4 x548 - 19 x608 <= 0
 c109: 4 x9 + 4 x69 + 4 x129 + 4 x189 + 4 x249 + 4 x309 + 4 x369 + 4 x429
       + 4 x489 + 4 x549 - 19 x609 <= 0
 c110: 4 x10 + 4 x70 + 4 x130 + 4 x190 + 4 x250 + 4 x310 + 4 x370 + 4 x430
       + 4 x490 + 4 x550 - 20 x610 <= 0
 c111: 4 x11 + 4 x71 + 4 x131 + 4 x191 + 4 x251 + 4 x311 + 4 x371 + 4 x431
       + 4 x491 + 4 x551 - 20 x611 <= 0
 c112: 4 x12 + 4 x72 + 4 x132 + 4 x192 + 4 x252 + 4 x312 + 4 x372 + 4 x432
       + 4 x492 + 4 x552 - 18 x612 <= 0
 c113: 4 x13 + 4 x73 + 4 x133 + 4 x193 + 4 x253 + 4 x313 + 4 x373 + 4 x433
       + 4 x493 + 4 x553 - 20 x613 <= 0
 c114: 4 x14 + 4 x74 + 4 x134 + 4 x194 + 4 x254 + 4 x314 + 4 x374 + 4 x434
       + 4 x494 + 4 x554 - 22 x614 <= 0
 c115: 4 x15 + 4 x75 + 4 x135 + 4 x195 + 4 x255 + 4 x315 + 4 x375 + 4 x435
       + 4 x495 + 4 x555 - 19 x615 <= 0
 c116: 4 x16 + 4 x76 + 4 x136 + 4 x196 + 4 x256 + 4 x316 + 4 x376 + 4 x436
       + 4 x496 + 4 x556 - 20 x616 <= 0
 c117: 4 x17 + 4 x77 + 4 x137 + 4 x197 + 4 x257 + 4 x317 + 4 x377 + 4 x437
       + 4 x497 + 4 x557 - 18 x617 <= 0
 c118: 4 x18 + 4 x78 + 4 x138 + 4 x198 + 4 x258 + 4 x318 + 4 x378 + 4 x438
       + 4 x498 + 4 x558 - 21 x618 <= 0
 c119: 4 x19 + 4 x79 + 4 x139 + 4 x199 + 4 x259 + 4 x319 + 4 x379 + 4 x439
       + 4 x499 + 4 x559 - 20 x619 <= 0
 c120: 4 x20 + 4 x80 + 4 x140 + 4 x200 + 4 x260 + 4 x320 + 4 x380 + 4 x440
       + 4 x500 + 4 x560 - 21 x620 <= 0
 c121: 4 x21 + 4 x81 + 4 x141 + 4 x201 + 4 x261 + 4 x321 + 4 x381 + 4 x441
       + 4 x501 + 4 x561 - 22 x621 <= 0
 c122: 4 x22 + 4 x82 + 4 x142 + 4 x202 + 4 x262 + 4 x322 + 4 x382 + 4 x442
       + 4 x502 + 4 x562 - 21 x622 <= 0
 c123: 4 x23 + 4 x83 + 4 x143 + 4 x203 + 4 x263 + 4 x323 + 4 x383 + 4 x443
       + 4 x503 + 4 x563 - 22 x623 <= 0
 c124: 4 x24 + 4 x84 + 4 x144 + 4 x204 + 4 x264 + 4 x324 + 4 x384 + 4 x444
       + 4 x504 + 4 x564 - 21 x624 <= 0
 c125: 4 x25 + 4 x85 + 4 x145 + 4 x205 + 4 x265 + 4 x325 + 4 x385 + 4 x445
       + 4 x505 + 4 x565 - 21 x625 <= 0
 c126: 4 x26 + 4 x86 + 4 x146 + 4 x206 + 4 x266 + 4 x326 + 4 x386 + 4 x446
       + 4 x506 + 4 x566 - 22 x626 <= 0
 c127: 4 x27 + 4 x87 + 4 x147 + 4 x207 + 4 x267 + 4 x327 + 4 x387 + 4 x447
       + 4 x507 + 4 x567 - 22 x627 <= 0
 c128: 4 x28 + 4 x88 + 4 x148 + 4 x208 + 4 x268 + 4 x328 + 4 x388 + 4 x448
       + 4 x508 + 4 x568 - 19 x628 <= 0
 c129: 4 x29 + 4 x89 + 4 x149 + 4 x209 + 4 x269 + 4 x329 + 4 x389 + 4 x449
       + 4 x509 + 4 x569 - 22 x629 <= 0
 c130: 4 x30 + 4 x90 + 4 x150 + 4 x210 + 4 x270 + 4 x330 + 4 x390 + 4 x450
       + 4 x510 + 4 x570 - 21 x630 <= 0
 c131: 4 x31 + 4 x91 + 4 x151 + 4 x211 + 4 x271 + 4 x331 + 4 x391 + 4 x451
       + 4 x511 + 4 x571 - 22 x631 <= 0
 c132: 4 x32 + 4 x92 + 4 x152 + 4 x212 + 4 x272 + 4 x332 + 4 x392 + 4 x452
       + 4 x512 + 4 x572 - 20 x632 <= 0
 c133: 4 x33 + 4 x93 + 4 x153 + 4 x213 + 4 x273 + 4 x333 + 4 x393 + 4 x453
       + 4 x513 + 4 x573 - 18 x633 <= 0
 c134: 4 x34 + 4 x94 + 4 x154 + 4 x214 + 4 x274 + 4 x334 + 4 x394 + 4 x454
       + 4 x514 + 4 x574 - 19 x634 <= 0
 c135: 4 x35 + 4 x95 + 4 x155 + 4 x215 + 4 x275 + 4 x335 + 4 x395 + 4 x455
       + 4 x515 + 4 x575 - 20 x635 <= 0
 c136: 4 x36 + 4 x96 + 4 x156 + 4 x216 + 4 x276 + 4 x336 + 4 x396 + 4 x456
       + 4 x516 + 4 x576 - 20 x636 <= 0
 c137: 4 x37 + 4 x97 + 4 x157 + 4 x217 + 4 x277 + 4 x337 + 4 x397 + 4 x457
       + 4 x517 + 4 x577 - 18 x637 <= 0
 c138: 4 x38 + 4 x98 + 4 x158 + 4 x218 + 4 x278 + 4 x338 + 4 x398 + 4 x458
       + 4 x518 + 4 x578 - 19 x638 <= 0
 c139: 4 x39 + 4 x99 + 4 x159 + 4 x219 + 4 x279 + 4 x339 + 4 x399 + 4 x459
       + 4 x519 + 4 x579 - 20 x639 <= 0
 c140: 4 x40 + 4 x100 + 4 x160 + 4 x220 + 4 x280 + 4 x340 + 4 x400 + 4 x460
       + 4 x520 + 4 x580 - 20 x640 <= 0
 c141: 4 x41 + 4 x101 + 4 x161 + 4 x221 + 4 x281 + 4 x341 + 4 x401 + 4 x461
       + 4 x521 + 4 x581 - 20 x641 <= 0
 c142: 4 x42 + 4 x102 + 4 x162 + 4 x222 + 4 x282 + 4 x342 + 4 x402 + 4 x462
       + 4 x522 + 4 x582 - 20 x642 <= 0
 c143: 4 x43 + 4 x103 + 4 x163 + 4 x223 + 4 x283 + 4 x343 + 4 x403 + 4 x463
       + 4 x523 + 4 x583 - 21 x643 <= 0
 c144: 4 x44 + 4 x104 + 4 x164 + 4 x224 + 4 x284 + 4 x344 + 4 x404 + 4 x464
       + 4 x524 + 4 x584 - 22 x644 <= 0
 c145: 4 x45 + 4 x105 + 4 x165 + 4 x225 + 4 x285 + 4 x345 + 4 x405 + 4 x465
       + 4 x525 + 4 x585 - 18 x645 <= 0
 c146: 4 x46 + 4 x106 + 4 x166 + 4 x226 + 4 x286 + 4 x346 + 4 x406 + 4 x466
       + 4 x526 + 4 x586 - 22 x646 <= 0
 c147: 4 x47 + 4 x107 + 4 x167 + 4 x227 + 4 x287 + 4 x347 + 4 x407 + 4 x467
       + 4 x527 + 4 x587 - 20 x647 <= 0
 c148: 4 x48 + 4 x108 + 4 x168 + 4 x228 + 4 x288 + 4 x348 + 4 x408 + 4 x468
       + 4 x528 + 4 x588 - 18 x648 <= 0
 c149: 4 x49 + 4 x109 + 4 x169 + 4 x229 + 4 x289 + 4 x349 + 4 x409 + 4 x469
       + 4 x529 + 4 x589 - 21 x649 <= 0
 c150: 4 x50 + 4 x110 + 4 x170 + 4 x230 + 4 x290 + 4 x350 + 4 x410 + 4 x470
       + 4 x530 + 4 x590 - 19 x650 <= 0
 c151: 4 x51 + 4 x111 + 4 x171 + 4 x231 + 4 x291 + 4 x351 + 4 x411 + 4 x471
       + 4 x531 + 4 x591 - 20 x651 <= 0
 c152: 4 x52 + 4 x112 + 4 x172 + 4 x232 + 4 x292 + 4 x352 + 4 x412 + 4 x472
       + 4 x532 + 4 x592 - 18 x652 <= 0
 c153: 4 x53 + 4 x113 + 4 x173 + 4 x233 + 4 x293 + 4 x353 + 4 x413 + 4 x473
       + 4 x533 + 4 x593 - 21 x653 <= 0
 c154: 4 x54 + 4 x114 + 4 x174 + 4 x234 + 4 x294 + 4 x354 + 4 x414 + 4 x474
       + 4 x534 + 4 x594 - 20 x654 <= 0
 c155: 4 x55 + 4 x115 + 4 x175 + 4 x235 + 4 x295 + 4 x355 + 4 x415 + 4 x475
       + 4 x535 + 4 x595 - 19 x655 <= 0
 c156: 4 x56 + 4 x116 + 4 x176 + 4 x236 + 4 x296 + 4 x356 + 4 x416 + 4 x476
       + 4 x536 + 4 x596 - 22 x656 <= 0
 c157: 4 x57 + 4 x117 + 4 x177 + 4 x237 + 4 x297 + 4 x357 + 4 x417 + 4 x477
       + 4 x537 + 4 x597 - 21 x657 <= 0
 c158: 4 x58 + 4 x118 + 4 x178 + 4 x238 + 4 x298 + 4 x358 + 4 x418 + 4 x478
       + 4 x538 + 4 x598 - 21 x658 <= 0
 c159: 4 x59 + 4 x119 + 4 x179 + 4 x239 + 4 x299 + 4 x359 + 4 x419 + 4 x479
       + 4 x539 + 4 x599 - 21 x659 <= 0
 c160: 4 x60 + 4 x120 + 4 x180 + 4 x240 + 4 x300 + 4 x360 + 4 x420 + 4 x480
       + 4 x540 + 4 x600 - 14 x660 <= 0
Bounds
 0 <= x1 <= 1
 0 <= x2 <= 1
 0 <= x3 <= 1
 0 <= x4 <= 1
 0 <= x5 <= 1
 0 <= x6 <= 1
 0 <= x7 <= 1
 0 <= x8 <= 1
 0 <= x9 <= 1
 0 <= x10 <= 1
 0 <= x11 <= 1
 0 <= x12 <= 1
 0 <= x13 <= 1
 0 <= x14 <= 1
 0 <= x15 <= 1
 0 <= x16 <= 1
 0 <= x17 <= 1
 0 <= x18 <= 1
 0 <= x19 <= 1
 0 <= x20 <= 1
 0 <= x21 <= 1
 0 <= x22 <= 1
 0 <= x23 <= 1
 0 <= x24 <= 1
 0 <= x25 <= 1
 0 <= x26 <= 1
 0 <= x27 <= 1
 0 <= x28 <= 1
 0 <= x29 <= 1
 0 <= x30 <= 1
 0 <= x31 <= 1
 0 <= x32 <= 1
 0 <= x33 <= 1
 0 <= x34 <= 1
 0 <= x35 <= 1
 0 <= x36 <= 1
 0 <= x37 <= 1
 0 <= x38 <= 1
 0 <= x39 <= 1
 0 <= x40 <= 1
 0 <= x41 <= 1
 0 <= x42 <= 1
 0 <= x43 <= 1
 0 <= x44 <= 1
 0 <= x45 <= 1
 0 <= x46 <= 1
 0 <= x47 <= 1
 0 <= x48 <= 1
 0 <= x49 <= 1
 0 <= x50 <= 1
 0 <= x51 <= 1
 0 <= x52 <= 1
 0 <= x53 <= 1
 0 <= x54 <= 1
 0 <= x55 <= 1
 0 <= x56 <= 1
 0 <= x57 <= 1
 0 <= x58 <= 1
 0 <= x59 <= 1
 0 <= x60 <= 1
 0 <= x61 <= 1
 0 <= x62 <= 1
 0 <= x63 <= 1
 0 <= x64 <= 1
 0 <= x65 <= 1
 0 <= x66 <= 1
 0 <= x67 <= 1
 0 <= x68 <= 1
 0 <= x69 <= 1
 0 <= x70 <= 1
 0 <= x71 <= 1
 0 <= x72 <= 1
 0 <= x73 <= 1
 0 <= x74 <= 1
 0 <= x75 <= 1
 0 <= x76 <= 1
 0 <= x77 <= 1
 0 <= x78 <= 1
 0 <= x79 <= 1
 0 <= x80 <= 1
 0 <= x81 <= 1
 0 <= x82 <= 1
 0 <= x83 <= 1
 0 <= x84 <= 1
 0 <= x85 <= 1
 0 <= x86 <= 1
 0 <= x87 <= 1
 0 <= x88 <= 1
 0 <= x89 <= 1
 0 <= x90 <= 1
 0 <= x91 <= 1
 0 <= x92 <= 1
 0 <= x93 <= 1
 0 <= x94 <= 1
 0 <= x95 <= 1
 0 <= x96 <= 1
 0 <= x97 <= 1
 0 <= x98 <= 1
 0 <= x99 <= 1
 0 <= x100 <= 1
 0 <= x101 <= 1
 0 <= x102 <= 1
 0 <= x103 <= 1
 0 <= x104 <= 1
 0 <= x105 <= 1
 0 <= x106 <= 1
 0 <= x107 <= 1
 0 <= x108 <= 1
 0 <= x109 <= 1
 0 <= x110 <= 1
 0 <= x111 <= 1
 0 <= x112 <= 1
 0 <= x113 <= 1
 0 <= x114 <= 1
 0 <= x115 <= 1
 0 <= x116 <= 1
 0 <= x117 <= 1
 0 <= x118 <= 1
 0 <= x119 <= 1
 0 <= x120 <= 1
 0 <= x121 <= 1
 0 <= x122 <= 1
 0 <= x123 <= 1
 0 <= x124 <= 1
 0 <= x125 <= 1
 0 <= x126 <= 1
 0 <= x127 <= 1
 0 <= x128 <= 1
 0 <= x129 <= 1
 0 <= x130 <= 1
 0 <= x131 <= 1
 0 <= x132 <= 1
 0 <= x133 <= 1
 0 <= x134 <= 1
 0 <= x135 <= 1
 0 <= x136 <= 1
 0 <= x137 <= 1
 0 <= x138 <= 1
 0 <= x139 <= 1
 0 <= x140 <= 1
 0 <= x141 <= 1
 0 <= x142 <= 1
 0 <= x143 <= 1
 0 <= x144 <= 1
 0 <= x145 <= 1
 0 <= x146 <= 1
 0 <= x147 <= 1
 0 <= x148 <= 1
 0 <= x149 <= 1
 0 <= x150 <= 1
 0 <= x151 <= 1
 0 <= x152 <= 1
 0 <= x153 <= 1
 0 <= x154 <= 1
 0 <= x155 <= 1
 0 <= x156 <= 1
 0 <= x157 <= 1
 0 <= x158 <= 1
 0 <= x159 <= 1
 0 <= x160 <= 1
 0 <= x161 <= 1
 0 <= x162 <= 1
 0 <= x163 <= 1
 0 <= x164 <= 1
 0 <= x165 <= 1
 0 <= x166 <= 1
 0 <= x167 <= 1
 0 <= x168 <= 1
 0 <= x169 <= 1
 0 <= x170 <= 1
 0 <= x171 <= 1
 0 <= x172 <= 1
 0 <= x173 <= 1
 0 <= x174 <= 1
 0 <= x175 <= 1
 0 <= x176 <= 1
 0 <= x177 <= 1
 0 <= x178 <= 1
 0 <= x179 <= 1
 0 <= x180 <= 1
 0 <= x181 <= 1
 0 <= x182 <= 1
 0 <= x183 <= 1
 0 <= x184 <= 1
 0 <= x185 <= 1
 0 <= x186 <= 1
 0 <= x187 <= 1
 0 <= x188 <= 1
 0 <= x189 <= 1
 0 <= x190 <= 1
 0 <= x191 <= 1
 0 <= x192 <= 1
 0 <= x193 <= 1
 0 <= x194 <= 1
 0 <= x195 <= 1
 0 <= x196 <= 1
 0 <= x197 <= 1
 0 <= x198 <= 1
 0 <= x199 <= 1
 0 <= x200 <= 1
 0 <= x201 <= 1
 0 <= x202 <= 1
 0 <= x203 <= 1
 0 <= x204 <= 1
 0 <= x205 <= 1
 0 <= x206 <= 1
 0 <= x207 <= 1
 0 <= x208 <= 1
 0 <= x209 <= 1
 0 <= x210 <= 1
 0 <= x211 <= 1
 0 <= x212 <= 1
 0 <= x213 <= 1
 0 <= x214 <= 1
 0 <= x215 <= 1
 0 <= x216 <= 1
 0 <= x217 <= 1
 0 <= x218 <= 1
 0 <= x219 <= 1
 0 <= x220 <= 1
 0 <= x221 <= 1
 0 <= x222 <= 1
 0 <= x223 <= 1
 0 <= x224 <= 1
 0 <= x225 <= 1
 0 <= x226 <= 1
 0 <= x227 <= 1
 0 <= x228 <= 1
 0 <= x229 <= 1
 0 <= x230 <= 1
 0 <= x231 <= 1
 0 <= x232 <= 1
 0 <= x233 <= 1
 0 <= x234 <= 1
 0 <= x235 <= 1
 0 <= x236 <= 1
 0 <= x237 <= 1
 0 <= x238 <= 1
 0 <= x239 <= 1
 0 <= x240 <= 1
 0 <= x241 <= 1
 0 <= x242 <= 1
 0 <= x243 <= 1
 0 <= x244 <= 1
 0 <= x245 <= 1
 0 <= x246 <= 1
 0 <= x247 <= 1
 0 <= x248 <= 1
 0 <= x249 <= 1
 0 <= x250 <= 1
 0 <= x251 <= 1
 0 <= x252 <= 1
 0 <= x253 <= 1
 0 <= x254 <= 1
 0 <= x255 <= 1
 0 <= x256 <= 1
 0 <= x257 <= 1
 0 <= x258 <= 1
 0 <= x259 <= 1
 0 <= x260 <= 1
 0 <= x261 <= 1
 0 <= x262 <= 1
 0 <= x263 <= 1
 0 <= x264 <= 1
 0 <= x265 <= 1
 0 <= x266 <= 1
 0 <= x267 <= 1
 0 <= x268 <= 1
 0 <= x269 <= 1
 0 <= x270 <= 1
 0 <= x271 <= 1
 0 <= x272 <= 1
 0 <= x273 <= 1
 0 <= x274 <= 1
 0 <= x275 <= 1
 0 <= x276 <= 1
 0 <= x277 <= 1
 0 <= x278 <= 1
 0 <= x279 <= 1
 0 <= x280 <= 1
 0 <= x281 <= 1
 0 <= x282 <= 1
 0 <= x283 <= 1
 0 <= x284 <= 1
 0 <= x285 <= 1
 0 <= x286 <= 1
 0 <= x287 <= 1
 0 <= x288 <= 1
 0 <= x289 <= 1
 0 <= x290 <= 1
 0 <= x291 <= 1
 0 <= x292 <= 1
 0 <= x293 <= 1
 0 <= x294 <= 1
 0 <= x295 <= 1
 0 <= x296 <= 1
 0 <= x297 <= 1
 0 <= x298 <= 1
 0 <= x299 <= 1
 0 <= x300 <= 1
 0 <= x301 <= 1
 0 <= x302 <= 1
 0 <= x303 <= 1
 0 <= x304 <= 1
 0 <= x305 <= 1
 0 <= x306 <= 1
 0 <= x307 <= 1
 0 <= x308 <= 1
 0 <= x309 <= 1
 0 <= x310 <= 1
 0 <= x311 <= 1
 0 <= x312 <= 1
 0 <= x313 <= 1
 0 <= x314 <= 1
 0 <= x315 <= 1
 0 <= x316 <= 1
 0 <= x317 <= 1
 0 <= x318 <= 1
 0 <= x319 <= 1
 0 <= x320 <= 1
 0 <= x321 <= 1
 0 <= x322 <= 1
 0 <= x323 <= 1
 0 <= x324 <= 1
 0 <= x325 <= 1
 0 <= x326 <= 1
 0 <= x327 <= 1
 0 <= x328 <= 1
 0 <= x329 <= 1
 0 <= x330 <= 1
 0 <= x331 <= 1
 0 <= x332 <= 1
 0 <= x333 <= 1
 0 <= x334 <= 1
 0 <= x335 <= 1
 0 <= x336 <= 1
 0 <= x337 <= 1
 0 <= x338 <= 1
 0 <= x339 <= 1
 0 <= x340 <= 1
 0 <= x341 <= 1
 0 <= x342 <= 1
 0 <= x343 <= 1
 0 <= x344 <= 1
 0 <= x345 <= 1
 0 <= x346 <= 1
 0 <= x347 <= 1
 0 <= x348 <= 1
 0 <= x349 <= 1
 0 <= x350 <= 1
 0 <= x351 <= 1
 0 <= x352 <= 1
 0 <= x353 <= 1
 0 <= x354 <= 1
 0 <= x355 <= 1
 0 <= x356 <= 1
 0 <= x357 <= 1
 0 <= x358 <= 1
 0 <= x359 <= 1
 0 <= x360 <= 1
 0 <= x361 <= 1
 0 <= x362 <= 1
 0 <= x363 <= 1
 0 <= x364 <= 1
 0 <= x365 <= 1
 0 <= x366 <= 1
 0 <= x367 <= 1
 0 <= x368 <= 1
 0 <= x369 <= 1
 0 <= x370 <= 1
 0 <= x371 <= 1
 0 <= x372 <= 1
 0 <= x373 <= 1
 0 <= x374 <= 1
 0 <= x375 <= 1
 0 <= x376 <= 1
 0 <= x377 <= 1
 0 <= x378 <= 1
 0 <= x379 <= 1
 0 <= x380 <= 1
 0 <= x381 <= 1
 0 <= x382 <= 1
 0 <= x383 <= 1
 0 <= x384 <= 1
 0 <= x385 <= 1
 0 <= x386 <= 1
 0 <= x387 <= 1
 0 <= x388 <= 1
 0 <= x389 <= 1
 0 <= x390 <= 1
 0 <= x391 <= 1
 0 <= x392 <= 1
 0 <= x393 <= 1
 0 <= x394 <= 1
 0 <= x395 <= 1
 0 <= x396 <= 1
 0 <= x397 <= 1
 0 <= x398 <= 1
 0 <= x399 <= 1
 0 <= x400 <= 1
 0 <= x401 <= 1
 0 <= x402 <= 1
 0 <= x403 <= 1
 0 <= x404 <= 1
 0 <= x405 <= 1
 0 <= x406 <= 1
 0 <= x407 <= 1
 0 <= x408 <= 1
 0 <= x409 <= 1
 0 <= x410 <= 1
 0 <= x411 <= 1
 0 <= x412 <= 1
 0 <= x413 <= 1
 0 <= x414 <= 1
 0 <= x415 <= 1
 0 <= x416 <= 1
 0 <= x417 <= 1
 0 <= x418 <= 1
 0 <= x419 <= 1
 0 <= x420 <= 1
 0 <= x421 <= 1
 0 <= x422 <= 1
 0 <= x423 <= 1
 0 <= x424 <= 1
 0 <= x425 <= 1
 0 <= x426 <= 1
 0 <= x427 <= 1
 0 <= x428 <= 1
 0 <= x429 <= 1
 0 <= x430 <= 1
 0 <= x431 <= 1
 0 <= x432 <= 1
 0 <= x433 <= 1
 0 <= x434 <= 1
 0 <= x435 <= 1
 0 <= x436 <= 1
 0 <= x437 <= 1
 0 <= x438 <= 1
 0 <= x439 <= 1
 0 <= x440 <= 1
 0 <= x441 <= 1
 0 <= x442 <= 1
 0 <= x443 <= 1
 0 <= x444 <= 1
 0 <= x445 <= 1
 0 <= x446 <= 1
 0 <= x447 <= 1
 0 <= x448 <= 1
 0 <= x449 <= 1
 0 <= x450 <= 1
 0 <= x451 <= 1
 0 <= x452 <= 1
 0 <= x453 <= 1
 0 <= x454 <= 1
 0 <= x455 <= 1
 0 <= x456 <= 1
 0 <= x457 <= 1
 0 <= x458 <= 1
 0 <= x459 <= 1
 0 <= x460 <= 1
 0 <= x461 <= 1
 0 <= x462 <= 1
 0 <= x463 <= 1
 0 <= x464 <= 1
 0 <= x465 <= 1
 0 <= x466 <= 1
 0 <= x467 <= 1
 0 <= x468 <= 1
 0 <= x469 <= 1
 0 <= x470 <= 1
 0 <= x471 <= 1
 0 <= x472 <= 1
 0 <= x473 <= 1
 0 <= x474 <= 1
 0 <= x475 <= 1
 0 <= x476 <= 1
 0 <= x477 <= 1
 0 <= x478 <= 1
 0 <= x479 <= 1
 0 <= x480 <= 1
 0 <= x481 <= 1
 0 <= x482 <= 1
 0 <= x483 <= 1
 0 <= x484 <= 1
 0 <= x485 <= 1
 0 <= x486 <= 1
 0 <= x487 <= 1
 0 <= x488 <= 1
 0 <= x489 <= 1
 0 <= x490 <= 1
 0 <= x491 <= 1
 0 <= x492 <= 1
 0 <= x493 <= 1
 0 <= x494 <= 1
 0 <= x495 <= 1
 0 <= x496 <= 1
 0 <= x497 <= 1
 0 <= x498 <= 1
 0 <= x499 <= 1
 0 <= x500 <= 1
 0 <= x501 <= 1
 0 <= x502 <= 1
 0 <= x503 <= 1
 0 <= x504 <= 1
 0 <= x505 <= 1
 0 <= x506 <= 1
 0 <= x507 <= 1
 0 <= x508 <= 1
 0 <= x509 <= 1
 0 <= x510 <= 1
 0 <= x511 <= 1
 0 <= x512 <= 1
 0 <= x513 <= 1
 0 <= x514 <= 1
 0 <= x515 <= 1
 0 <= x516 <= 1
 0 <= x517 <= 1
 0 <= x518 <= 1
 0 <= x519 <= 1
 0 <= x520 <= 1
 0 <= x521 <= 1
 0 <= x522 <= 1
 0 <= x523 <= 1
 0 <= x524 <= 1
 0 <= x525 <= 1
 0 <= x526 <= 1
 0 <= x527 <= 1
 0 <= x528 <= 1
 0 <= x529 <= 1
 0 <= x530 <= 1
 0 <= x531 <= 1
 0 <= x532 <= 1
 0 <= x533 <= 1
 0 <= x534 <= 1
 0 <= x535 <= 1
 0 <= x536 <= 1
 0 <= x537 <= 1
 0 <= x538 <= 1
 0 <= x539 <= 1
 0 <= x540 <= 1
 0 <= x541 <= 1
 0 <= x542 <= 1
 0 <= x543 <= 1
 0 <= x544 <= 1
 0 <= x545 <= 1
 0 <= x546 <= 1
 0 <= x547 <= 1
 0 <= x548 <= 1
 0 <= x549 <= 1
 0 <= x550 <= 1
 0 <= x551 <= 1
 0 <= x552 <= 1
 0 <= x553 <= 1
 0 <= x554 <= 1
 0 <= x555 <= 1
 0 <= x556 <= 1
 0 <= x557 <= 1
 0 <= x558 <= 1
 0 <= x559 <= 1
 0 <= x560 <= 1
 0 <= x561 <= 1
 0 <= x562 <= 1
 0 <= x563 <= 1
 0 <= x564 <= 1
 0 <= x565 <= 1
 0 <= x566 <= 1
 0 <= x567 <= 1
 0 <= x568 <= 1
 0 <= x569 <= 1
 0 <= x570 <= 1
 0 <= x571 <= 1
 0 <= x572 <= 1
 0 <= x573 <= 1
 0 <= x574 <= 1
 0 <= x575 <= 1
 0 <= x576 <= 1
 0 <= x577 <= 1
 0 <= x578 <= 1
 0 <= x579 <= 1
 0 <= x580 <= 1
 0 <= x581 <= 1
 0 <= x582 <= 1
 0 <= x583 <= 1
 0 <= x584 <= 1
 0 <= x585 <= 1
 0 <= x586 <= 1
 0 <= x587 <= 1
 0 <= x588 <= 1
 0 <= x589 <= 1
 0 <= x590 <= 1
 0 <= x591 <= 1
 0 <= x592 <= 1
 0 <= x593 <= 1
 0 <= x594 <= 1
 0 <= x595 <= 1
 0 <= x596 <= 1
 0 <= x597 <= 1
 0 <= x598 <= 1
 0 <= x599 <= 1
 0 <= x600 <= 1
 0 <= x601 <= 1
 0 <= x602 <= 1
 0 <= x603 <= 1
 0 <= x604 <= 1
 0 <= x605 <= 1
 0 <= x606 <= 1
 0 <= x607 <= 1
 0 <= x608 <= 1
 0 <= x609 <= 1
 0 <= x610 <= 1
 0 <= x611 <= 1
 0 <= x612 <= 1
 0 <= x613 <= 1
 0 <= x614 <= 1
 0 <= x615 <= 1
 0 <= x616 <= 1
 0 <= x617 <= 1
 0 <= x618 <= 1
 0 <= x619 <= 1
 0 <= x620 <= 1
 0 <= x621 <= 1
 0 <= x622 <= 1
 0 <= x623 <= 1
 0 <= x624 <= 1
 0 <= x625 <= 1
 0 <= x626 <= 1
 0 <= x627 <= 1
 0 <= x628 <= 1
 0 <= x629 <= 1
 0 <= x630 <= 1
 0 <= x631 <= 1
 0 <= x632 <= 1
 0 <= x633 <= 1
 0 <= x634 <= 1
 0 <= x635 <= 1
 0 <= x636 <= 1
 0 <= x637 <= 1
 0 <= x638 <= 1
 0 <= x639 <= 1
 0 <= x640 <= 1
 0 <= x641 <= 1
 0 <= x642 <= 1
 0 <= x643 <= 1
 0 <= x644 <= 1
 0 <= x645 <= 1
 0 <= x646 <= 1
 0 <= x647 <= 1
 0 <= x648 <= 1
 0 <= x649 <= 1
 0 <= x650 <= 1
 0 <= x651 <= 1
 0 <= x652 <= 1
 0 <= x653 <= 1
 0 <= x654 <= 1
 0 <= x655 <= 1
 0 <= x656 <= 1
 0 <= x657 <= 1
 0 <= x658 <= 1
 0 <= x659 <= 1
 0 <= x660 <= 1
Binaries
 x601  x602  x603  x604  x605  x606  x607  x608  x609  x610  x611  x612  x613 
 x614  x615  x616  x617  x618  x619  x620  x621  x622  x623  x624  x625  x626 
 x627  x628  x629  x630  x631  x632  x633  x634  x635  x636  x637  x638  x639 
 x640  x641  x642  x643  x644  x645  x646  x647  x648  x649  x650  x651  x652 
 x653  x654  x655  x656  x657  x658  x659  x660 
End
